32	0

0	7	2	3	4	5	6	7	9
10	5	13	14	15	18	19
8	2	10	11
1	2	8	12
8	2	10	11
1	2	8	12
2	2	10	11
3	2	10	11
2	2	10	11
2	5	13	14	15	18	19
3	2	16	17
9	5	13	14	15	18	19
6	5	20	21	23	24	27
2	2	16	17
9	2	22	25
5	5	20	21	23	24	27
5	5	20	21	23	24	27
4	5	20	21	23	24	27
7	5	20	21	23	24	27
8	2	26	28
2	2	22	25
1	2	26	28
5	2	26	28
8	2	26	28
2	2	26	28
1	3	29	30	31
9	3	29	30	31
10	1	32
6	1	32
9	1	32
7	1	32
0	0
